proyfinal/src/viki/013/experimentInOfficeAgust.take6.output/dcd1f398-f3fe-4e82-ac84-f963d75df666.als.dat
{'cnf.clauses': '118081',
 'cnf.totvars': '69608',
 'conflict literals': '79',
 'conflicts': '37',
 'decisions': '3562',
 'memused.mb': '14.76',
 'outcome': 'UNSAT',
 'propagations': '36381',
 'restarts': '1',
 'solver.msecs': 35,
 'task.msecs': 81}
