proyfinal/src/viki/013/experimentInOfficeAgust.take6.output/dcd1f398-f3fe-4e82-ac84-f963d75df666.als.out
Reading from standard input... Use '--help' for help.
============================[ Problem Statistics ]=============================
|                                                                             |
|  Number of variables:         69608                                         |
|  Number of clauses:          118081                                         |
|  Parse time:                   0.03 s                                       |
|                                                                             |
============================[ Search Statistics ]==============================
| Conflicts |          ORIGINAL         |          LEARNT          | Progress |
|           |    Vars  Clauses Literals |    Limit  Clauses Lit/Cl |          |
===============================================================================
===============================================================================
restarts              : 1
conflicts             : 37             (1046 /sec)
decisions             : 3562           (0.00 % random) (100721 /sec)
propagations          : 36381          (1028729 /sec)
conflict literals     : 79             (2.47 % deleted)
Memory used           : 14.76 MB
CPU time              : 0.035365 s

UNSATISFIABLE
